238032.4,19.48,21.34
229320.16,20.22,22.15
240756.84,19.26,21.1
229029.16,20.25,22.18
232543.34,19.94,21.84
226739.09,20.45,22.4
240670.3,19.27,21.11
231095.06,20.07,21.98
234327.52,19.79,21.68
230671.26,20.1,22.02
242382.73,19.13,20.96
223329.04,20.76,22.74
235757.55,19.67,21.55
241514.98,19.2,21.03
232489.16,19.95,21.85
235389.29,19.7,21.58
235107.76,19.72,21.61
222977.32,20.8,22.78
234090.47,19.81,21.7
246301.74,18.83,20.62
